NAME : instances/clustered-mixed-tsp/instance-42.tsp
COMMENT : No Comment
TYPE : TSP
DIMENSION: 56
EDGE_WEIGHT_TYPE : EUC_2D
NODE_COORD_SECTION
1 750 380 
2 102 135 
3 849 252 
4 671 946 
5 765 307 
6 180 609 
7 136 191 
8 193 207 
9 311 578 
10 113 740 
11 811 333 
12 112 108 
13 264 570 
14 688 362 
15 30 213 
16 111 153 
17 354 425 
18 103 303 
19 674 402 
20 73 265 
21 95 283 
22 210 285 
23 224 592 
24 799 952 
25 102 251 
26 746 224 
27 189 473 
28 738 346 
29 734 230 
30 81 136 
31 84 236 
32 104 567 
33 66 297 
34 57 110 
35 312 482 
36 -24 188 
37 224 580 
38 785 954 
39 244 424 
40 157 421 
41 -38 300 
42 737 438 
43 732 304 
44 654 1060 
45 688 232 
46 788 350 
47 20 192 
48 -29 168 
49 166 116 
50 892 212 
51 180 456 
52 880 249 
53 268 535 
54 227 657 
55 -40 213 
56 621 405 
EOF
